GLPSOL--GLPK LP/MIP Solver 5.0
Parameter(s) specified in the command line:
 --lp ../modeles/2_424.lp --log 2_424.log
Reading problem data from '../modeles/2_424.lp'...
857 rows, 1700 columns, 5942 non-zeros
848 integer variables, all of which are binary
2565 lines were read
GLPK Integer Optimizer 5.0
857 rows, 1700 columns, 5942 non-zeros
848 integer variables, all of which are binary
Preprocessing...
836 constraint coefficient(s) were reduced
857 rows, 1698 columns, 5940 non-zeros
848 integer variables, all of which are binary
Scaling...
 A: min|aij| =  8.900e-05  max|aij| =  4.000e+00  ratio =  4.494e+04
GM: min|aij| =  6.868e-02  max|aij| =  1.456e+01  ratio =  2.120e+02
EQ: min|aij| =  4.717e-03  max|aij| =  1.000e+00  ratio =  2.120e+02
2N: min|aij| =  3.906e-03  max|aij| =  1.756e+00  ratio =  4.494e+02
Constructing initial basis...
Size of triangular part is 857
Solving LP relaxation...
GLPK Simplex Optimizer 5.0
857 rows, 1698 columns, 5940 non-zeros
      0: obj =   4.000000000e+00 inf =   9.500e+00 (5)
     49: obj =   4.750397739e-01 inf =   0.000e+00 (0)
*   183: obj =  -1.414207927e+00 inf =   5.517e-17 (0)
OPTIMAL LP SOLUTION FOUND
Integer optimization begins...
Long-step dual simplex will be used
+   183: mip =     not found yet >=              -inf        (1; 0)
+   254: >>>>>  -1.414207927e+00 >=  -1.414207927e+00 < 0.1% (72; 0)
+   254: mip =  -1.414207927e+00 >=     tree is empty   0.0% (0; 143)
INTEGER OPTIMAL SOLUTION FOUND
Time used:   0.1 secs
Memory used: 2.5 Mb (2650848 bytes)
